NAME : pr107
COMMENT : 107-city problem (Padberg/Rinaldi)
TYPE : TSP
DIMENSION : 51
EDGE_WEIGHT_TYPE : EUC_2D
NODE_COORD_SECTION
1 27.0 68.0
2 30.0 48.0
3 43.0 67.0
4 58.0 48.0
5 58.0 27.0
6 37.0 69.0
7 38.0 46.0
8 46.0 10.0
9 61.0 33.0
10 62.0 63.0
11 63.0 69.0
12 32.0 22.0
13 45.0 35.0
14 59.0 15.0
15 5.0 6.0
16 10.0 17.0
17 21.0 10.0
18 5.0 64.0
19 30.0 15.0
20 39.0 10.0
21 32.0 39.0
22 25.0 32.0
23 25.0 55.0
24 48.0 28.0
25 56.0 37.0
26 30.0 40.0
27 37.0 52.0
28 49.0 49.0
29 52.0 64.0
30 20.0 26.0
31 40.0 30.0
32 21.0 47.0
33 17.0 63.0
34 31.0 62.0
35 52.0 33.0
36 51.0 21.0
37 42.0 41.0
38 31.0 32.0
39 5.0 25.0
40 12.0 42.0
41 36.0 16.0
42 52.0 41.0
43 27.0 23.0
44 17.0 33.0
45 13.0 13.0
46 57.0 58.0
47 62.0 42.0
48 42.0 57.0
49 16.0 57.0
50 8.0 52.0
51 7.0 38.0
EOF
